p edge 115 1914
e 1 3
e 1 4
e 1 5
e 1 6
e 1 10
e 1 16
e 1 26
e 1 31
e 1 32
e 1 36
e 1 38
e 1 40
e 1 46
e 1 47
e 1 48
e 1 50
e 1 59
e 1 62
e 1 70
e 1 72
e 1 89
e 1 91
e 1 93
e 1 94
e 1 99
e 1 100
e 1 103
e 1 111
e 1 115
e 2 5
e 2 7
e 2 8
e 2 11
e 2 13
e 2 17
e 2 18
e 2 19
e 2 20
e 2 21
e 2 23
e 2 28
e 2 29
e 2 30
e 2 31
e 2 32
e 2 34
e 2 37
e 2 38
e 2 41
e 2 43
e 2 44
e 2 45
e 2 46
e 2 53
e 2 60
e 2 64
e 2 65
e 2 66
e 2 70
e 2 73
e 2 74
e 2 77
e 2 82
e 2 87
e 2 88
e 2 92
e 2 95
e 2 97
e 2 99
e 2 105
e 2 109
e 2 112
e 2 113
e 3 4
e 3 7
e 3 9
e 3 16
e 3 18
e 3 21
e 3 23
e 3 32
e 3 36
e 3 39
e 3 40
e 3 47
e 3 49
e 3 53
e 3 54
e 3 56
e 3 59
e 3 70
e 3 75
e 3 78
e 3 80
e 3 85
e 3 89
e 3 90
e 3 94
e 3 97
e 3 102
e 3 105
e 3 110
e 3 115
e 4 9
e 4 10
e 4 11
e 4 15
e 4 18
e 4 23
e 4 25
e 4 31
e 4 35
e 4 36
e 4 37
e 4 38
e 4 42
e 4 44
e 4 45
e 4 47
e 4 49
e 4 50
e 4 51
e 4 57
e 4 64
e 4 65
e 4 67
e 4 68
e 4 69
e 4 73
e 4 74
e 4 78
e 4 87
e 4 90
e 4 91
e 4 93
e 4 95
e 4 101
e 4 104
e 4 106
e 4 108
e 4 111
e 4 115
e 5 6
e 5 7
e 5 11
e 5 12
e 5 19
e 5 21
e 5 23
e 5 28
e 5 29
e 5 31
e 5 35
e 5 36
e 5 39
e 5 41
e 5 42
e 5 43
e 5 46
e 5 52
e 5 53
e 5 57
e 5 58
e 5 60
e 5 62
e 5 67
e 5 77
e 5 87
e 5 89
e 5 90
e 5 92
e 5 93
e 5 97
e 5 98
e 5 105
e 5 111
e 5 112
e 6 14
e 6 15
e 6 17
e 6 20
e 6 21
e 6 24
e 6 27
e 6 31
e 6 38
e 6 42
e 6 44
e 6 45
e 6 53
e 6 55
e 6 60
e 6 61
e 6 62
e 6 69
e 6 72
e 6 75
e 6 81
e 6 84
e 6 90
e 6 96
e 6 97
e 6 101
e 6 106
e 6 107
e 6 112
e 6 113
e 7 10
e 7 12
e 7 15
e 7 22
e 7 24
e 7 27
e 7 41
e 7 43
e 7 45
e 7 50
e 7 55
e 7 60
e 7 61
e 7 62
e 7 63
e 7 76
e 7 84
e 7 91
e 7 97
e 7 99
e 7 112
e 8 10
e 8 13
e 8 16
e 8 20
e 8 22
e 8 23
e 8 29
e 8 36
e 8 37
e 8 42
e 8 45
e 8 48
e 8 50
e 8 53
e 8 56
e 8 58
e 8 59
e 8 63
e 8 68
e 8 76
e 8 81
e 8 82
e 8 85
e 8 86
e 8 87
e 8 90
e 8 92
e 8 97
e 8 98
e 8 102
e 8 105
e 8 107
e 9 12
e 9 15
e 9 18
e 9 19
e 9 20
e 9 24
e 9 28
e 9 30
e 9 31
e 9 32
e 9 33
e 9 34
e 9 36
e 9 41
e 9 44
e 9 45
e 9 50
e 9 52
e 9 53
e 9 54
e 9 55
e 9 57
e 9 58
e 9 60
e 9 64
e 9 77
e 9 78
e 9 89
e 9 93
e 9 94
e 9 96
e 9 98
e 9 99
e 9 100
e 9 104
e 9 106
e 9 107
e 9 108
e 9 114
e 10 12
e 10 14
e 10 16
e 10 17
e 10 24
e 10 27
e 10 29
e 10 33
e 10 34
e 10 45
e 10 46
e 10 48
e 10 49
e 10 52
e 10 55
e 10 59
e 10 61
e 10 62
e 10 72
e 10 76
e 10 81
e 10 85
e 10 91
e 10 97
e 10 100
e 10 102
e 10 105
e 10 110
e 10 111
e 10 112
e 11 16
e 11 19
e 11 24
e 11 34
e 11 37
e 11 40
e 11 41
e 11 42
e 11 43
e 11 47
e 11 48
e 11 52
e 11 55
e 11 56
e 11 62
e 11 74
e 11 77
e 11 78
e 11 83
e 11 85
e 11 87
e 11 89
e 11 90
e 11 91
e 11 94
e 11 95
e 11 97
e 11 99
e 11 101
e 11 105
e 11 106
e 11 112
e 11 113
e 12 15
e 12 19
e 12 25
e 12 27
e 12 35
e 12 40
e 12 44
e 12 52
e 12 54
e 12 55
e 12 59
e 12 60
e 12 62
e 12 64
e 12 65
e 12 70
e 12 71
e 12 74
e 12 75
e 12 85
e 12 88
e 12 93
e 12 94
e 12 96
e 12 97
e 12 107
e 12 112
e 12 114
e 13 15
e 13 16
e 13 17
e 13 18
e 13 21
e 13 23
e 13 27
e 13 32
e 13 33
e 13 38
e 13 40
e 13 43
e 13 45
e 13 46
e 13 48
e 13 49
e 13 57
e 13 58
e 13 64
e 13 68
e 13 73
e 13 75
e 13 80
e 13 81
e 13 82
e 13 87
e 13 94
e 13 95
e 13 97
e 13 100
e 13 102
e 13 105
e 13 106
e 13 107
e 14 19
e 14 22
e 14 24
e 14 34
e 14 35
e 14 42
e 14 43
e 14 50
e 14 54
e 14 59
e 14 63
e 14 70
e 14 72
e 14 75
e 14 78
e 14 79
e 14 80
e 14 87
e 14 88
e 14 90
e 14 93
e 14 94
e 14 95
e 14 98
e 14 100
e 14 101
e 14 103
e 14 109
e 14 111
e 14 112
e 15 16
e 15 18
e 15 23
e 15 42
e 15 44
e 15 49
e 15 53
e 15 55
e 15 56
e 15 57
e 15 61
e 15 63
e 15 68
e 15 69
e 15 71
e 15 73
e 15 74
e 15 79
e 15 80
e 15 83
e 15 85
e 15 87
e 15 89
e 15 90
e 15 96
e 15 97
e 15 99
e 15 109
e 15 111
e 15 114
e 16 17
e 16 18
e 16 25
e 16 30
e 16 35
e 16 39
e 16 42
e 16 48
e 16 54
e 16 56
e 16 64
e 16 66
e 16 67
e 16 77
e 16 84
e 16 89
e 16 91
e 16 92
e 16 96
e 16 97
e 16 98
e 16 99
e 16 100
e 16 103
e 16 107
e 16 108
e 16 113
e 16 115
e 17 22
e 17 27
e 17 31
e 17 32
e 17 40
e 17 46
e 17 49
e 17 50
e 17 52
e 17 64
e 17 65
e 17 68
e 17 73
e 17 77
e 17 83
e 17 85
e 17 86
e 17 87
e 17 90
e 17 96
e 17 103
e 17 108
e 17 112
e 17 114
e 18 36
e 18 39
e 18 50
e 18 53
e 18 54
e 18 60
e 18 64
e 18 68
e 18 76
e 18 77
e 18 78
e 18 80
e 18 91
e 18 98
e 18 102
e 18 103
e 18 106
e 18 109
e 18 112
e 18 113
e 18 114
e 18 115
e 19 20
e 19 22
e 19 24
e 19 25
e 19 26
e 19 28
e 19 29
e 19 30
e 19 33
e 19 40
e 19 41
e 19 42
e 19 49
e 19 52
e 19 54
e 19 75
e 19 77
e 19 79
e 19 80
e 19 82
e 19 84
e 19 89
e 19 94
e 19 96
e 19 99
e 19 100
e 19 104
e 19 106
e 19 111
e 19 114
e 20 22
e 20 25
e 20 31
e 20 41
e 20 46
e 20 47
e 20 48
e 20 54
e 20 62
e 20 67
e 20 68
e 20 70
e 20 71
e 20 72
e 20 73
e 20 77
e 20 82
e 20 85
e 20 86
e 20 91
e 20 93
e 20 96
e 20 108
e 20 113
e 21 26
e 21 30
e 21 38
e 21 39
e 21 42
e 21 46
e 21 49
e 21 58
e 21 62
e 21 64
e 21 66
e 21 67
e 21 70
e 21 71
e 21 72
e 21 77
e 21 78
e 21 79
e 21 82
e 21 88
e 21 90
e 21 92
e 21 93
e 21 97
e 21 100
e 21 101
e 21 102
e 21 107
e 21 109
e 21 111
e 21 114
e 22 24
e 22 32
e 22 35
e 22 40
e 22 46
e 22 49
e 22 55
e 22 56
e 22 63
e 22 64
e 22 65
e 22 70
e 22 71
e 22 72
e 22 79
e 22 80
e 22 83
e 22 86
e 22 88
e 22 89
e 22 93
e 22 103
e 22 104
e 22 105
e 22 107
e 22 110
e 22 111
e 23 24
e 23 30
e 23 31
e 23 33
e 23 38
e 23 42
e 23 46
e 23 47
e 23 48
e 23 51
e 23 52
e 23 53
e 23 57
e 23 58
e 23 62
e 23 64
e 23 65
e 23 70
e 23 76
e 23 80
e 23 91
e 23 96
e 23 98
e 23 105
e 23 106
e 23 107
e 23 115
e 24 25
e 24 28
e 24 30
e 24 31
e 24 33
e 24 34
e 24 39
e 24 43
e 24 45
e 24 49
e 24 56
e 24 57
e 24 59
e 24 68
e 24 75
e 24 78
e 24 80
e 24 84
e 24 85
e 24 88
e 24 91
e 24 92
e 24 94
e 24 108
e 24 113
e 25 26
e 25 32
e 25 40
e 25 43
e 25 44
e 25 46
e 25 55
e 25 56
e 25 58
e 25 60
e 25 64
e 25 65
e 25 69
e 25 71
e 25 72
e 25 80
e 25 81
e 25 86
e 25 93
e 25 99
e 25 101
e 25 102
e 25 106
e 25 107
e 25 108
e 25 109
e 25 114
e 26 28
e 26 35
e 26 42
e 26 44
e 26 45
e 26 48
e 26 50
e 26 59
e 26 61
e 26 63
e 26 65
e 26 66
e 26 68
e 26 69
e 26 73
e 26 75
e 26 77
e 26 79
e 26 85
e 26 86
e 26 93
e 26 95
e 26 98
e 26 100
e 26 102
e 26 103
e 26 107
e 26 108
e 26 110
e 26 114
e 26 115
e 27 28
e 27 30
e 27 32
e 27 34
e 27 35
e 27 41
e 27 51
e 27 57
e 27 58
e 27 59
e 27 60
e 27 63
e 27 64
e 27 73
e 27 75
e 27 80
e 27 81
e 27 85
e 27 93
e 27 94
e 27 96
e 27 98
e 27 103
e 27 105
e 27 106
e 27 111
e 28 32
e 28 35
e 28 38
e 28 41
e 28 50
e 28 52
e 28 57
e 28 58
e 28 60
e 28 61
e 28 65
e 28 68
e 28 70
e 28 71
e 28 74
e 28 76
e 28 83
e 28 89
e 28 91
e 28 98
e 28 101
e 28 103
e 28 104
e 28 110
e 28 111
e 28 112
e 29 31
e 29 33
e 29 39
e 29 42
e 29 44
e 29 54
e 29 56
e 29 57
e 29 59
e 29 60
e 29 65
e 29 68
e 29 78
e 29 80
e 29 81
e 29 84
e 29 98
e 29 99
e 29 103
e 29 105
e 29 106
e 29 107
e 29 110
e 29 111
e 29 112
e 29 114
e 30 33
e 30 35
e 30 41
e 30 43
e 30 44
e 30 49
e 30 50
e 30 52
e 30 53
e 30 63
e 30 64
e 30 68
e 30 69
e 30 71
e 30 73
e 30 84
e 30 85
e 30 91
e 30 97
e 30 98
e 30 99
e 30 103
e 30 105
e 30 106
e 30 109
e 30 111
e 31 33
e 31 35
e 31 36
e 31 40
e 31 42
e 31 54
e 31 57
e 31 59
e 31 60
e 31 61
e 31 67
e 31 70
e 31 75
e 31 77
e 31 85
e 31 96
e 31 97
e 31 104
e 31 105
e 31 112
e 32 33
e 32 34
e 32 39
e 32 40
e 32 43
e 32 45
e 32 50
e 32 53
e 32 54
e 32 55
e 32 57
e 32 61
e 32 70
e 32 71
e 32 73
e 32 75
e 32 78
e 32 88
e 32 91
e 32 95
e 32 97
e 32 98
e 32 100
e 32 101
e 32 102
e 32 106
e 32 111
e 32 113
e 33 40
e 33 41
e 33 43
e 33 46
e 33 50
e 33 51
e 33 52
e 33 54
e 33 57
e 33 66
e 33 67
e 33 68
e 33 73
e 33 75
e 33 94
e 33 102
e 33 105
e 33 108
e 33 113
e 34 38
e 34 42
e 34 46
e 34 51
e 34 52
e 34 54
e 34 63
e 34 64
e 34 67
e 34 70
e 34 77
e 34 78
e 34 81
e 34 88
e 34 95
e 34 97
e 34 101
e 34 105
e 34 108
e 34 109
e 34 113
e 35 48
e 35 50
e 35 52
e 35 59
e 35 62
e 35 63
e 35 67
e 35 70
e 35 71
e 35 82
e 35 83
e 35 85
e 35 88
e 35 91
e 35 92
e 35 98
e 35 101
e 35 107
e 35 111
e 36 38
e 36 42
e 36 43
e 36 44
e 36 46
e 36 49
e 36 51
e 36 54
e 36 57
e 36 59
e 36 60
e 36 64
e 36 67
e 36 68
e 36 69
e 36 72
e 36 73
e 36 74
e 36 75
e 36 79
e 36 80
e 36 85
e 36 89
e 36 90
e 36 92
e 36 93
e 36 94
e 36 95
e 36 97
e 36 100
e 36 114
e 37 43
e 37 44
e 37 51
e 37 52
e 37 59
e 37 65
e 37 71
e 37 72
e 37 74
e 37 78
e 37 79
e 37 93
e 37 98
e 37 106
e 37 107
e 37 108
e 37 112
e 38 39
e 38 41
e 38 49
e 38 51
e 38 53
e 38 55
e 38 58
e 38 59
e 38 60
e 38 64
e 38 75
e 38 78
e 38 79
e 38 84
e 38 94
e 38 95
e 38 104
e 38 105
e 38 109
e 38 111
e 38 113
e 38 114
e 39 41
e 39 43
e 39 44
e 39 57
e 39 58
e 39 59
e 39 61
e 39 65
e 39 66
e 39 71
e 39 73
e 39 75
e 39 94
e 39 97
e 39 99
e 39 100
e 39 101
e 39 106
e 39 111
e 40 42
e 40 45
e 40 46
e 40 54
e 40 56
e 40 57
e 40 58
e 40 59
e 40 63
e 40 66
e 40 71
e 40 72
e 40 75
e 40 83
e 40 88
e 40 89
e 40 90
e 40 95
e 40 98
e 40 100
e 40 102
e 40 108
e 40 110
e 40 111
e 40 114
e 41 50
e 41 51
e 41 55
e 41 56
e 41 57
e 41 60
e 41 63
e 41 64
e 41 68
e 41 69
e 41 72
e 41 76
e 41 79
e 41 90
e 41 91
e 41 99
e 41 101
e 41 102
e 41 104
e 41 105
e 41 106
e 41 108
e 41 113
e 42 49
e 42 59
e 42 64
e 42 68
e 42 70
e 42 71
e 42 76
e 42 77
e 42 81
e 42 85
e 42 86
e 42 87
e 42 91
e 42 93
e 42 95
e 42 96
e 42 100
e 42 101
e 42 102
e 42 103
e 42 106
e 42 107
e 42 108
e 42 112
e 43 46
e 43 47
e 43 49
e 43 50
e 43 51
e 43 55
e 43 56
e 43 59
e 43 60
e 43 63
e 43 67
e 43 70
e 43 73
e 43 74
e 43 79
e 43 80
e 43 94
e 43 99
e 43 100
e 43 108
e 43 109
e 43 112
e 43 113
e 44 47
e 44 52
e 44 53
e 44 56
e 44 69
e 44 70
e 44 71
e 44 73
e 44 80
e 44 81
e 44 88
e 44 89
e 44 92
e 44 97
e 44 98
e 44 99
e 44 100
e 44 106
e 44 107
e 44 110
e 44 112
e 44 114
e 44 115
e 45 49
e 45 50
e 45 57
e 45 58
e 45 59
e 45 62
e 45 65
e 45 66
e 45 69
e 45 73
e 45 75
e 45 76
e 45 77
e 45 83
e 45 85
e 45 88
e 45 100
e 45 101
e 45 103
e 45 108
e 45 112
e 45 113
e 46 48
e 46 49
e 46 50
e 46 58
e 46 63
e 46 64
e 46 65
e 46 67
e 46 71
e 46 74
e 46 76
e 46 83
e 46 96
e 46 100
e 46 101
e 46 102
e 46 107
e 47 50
e 47 51
e 47 53
e 47 57
e 47 61
e 47 62
e 47 64
e 47 69
e 47 75
e 47 77
e 47 78
e 47 79
e 47 84
e 47 90
e 47 91
e 47 92
e 47 93
e 47 96
e 47 102
e 47 105
e 47 107
e 47 110
e 48 50
e 48 52
e 48 55
e 48 57
e 48 67
e 48 73
e 48 75
e 48 77
e 48 78
e 48 80
e 48 86
e 48 93
e 48 97
e 48 103
e 48 112
e 48 115
e 49 57
e 49 60
e 49 61
e 49 69
e 49 70
e 49 71
e 49 74
e 49 75
e 49 76
e 49 78
e 49 88
e 49 89
e 49 93
e 49 94
e 49 99
e 49 102
e 49 103
e 49 109
e 49 110
e 50 54
e 50 57
e 50 58
e 50 60
e 50 64
e 50 70
e 50 81
e 50 82
e 50 85
e 50 86
e 50 93
e 50 95
e 50 96
e 50 101
e 50 102
e 50 104
e 50 108
e 50 110
e 50 112
e 51 52
e 51 57
e 51 58
e 51 61
e 51 65
e 51 71
e 51 77
e 51 83
e 51 84
e 51 87
e 51 88
e 51 92
e 51 101
e 51 102
e 51 103
e 51 106
e 51 110
e 51 115
e 52 56
e 52 58
e 52 60
e 52 61
e 52 63
e 52 66
e 52 67
e 52 68
e 52 71
e 52 75
e 52 77
e 52 86
e 52 90
e 52 91
e 52 92
e 52 95
e 52 98
e 52 99
e 52 101
e 52 105
e 52 106
e 52 107
e 52 109
e 52 111
e 53 55
e 53 62
e 53 65
e 53 72
e 53 82
e 53 84
e 53 90
e 53 96
e 53 100
e 53 101
e 53 103
e 53 104
e 53 105
e 53 107
e 53 109
e 53 112
e 54 59
e 54 61
e 54 62
e 54 63
e 54 64
e 54 65
e 54 68
e 54 69
e 54 70
e 54 71
e 54 72
e 54 83
e 54 84
e 54 85
e 54 89
e 54 91
e 54 93
e 54 94
e 54 98
e 54 99
e 54 100
e 54 102
e 54 103
e 54 105
e 54 108
e 54 109
e 54 110
e 54 115
e 55 56
e 55 57
e 55 58
e 55 65
e 55 68
e 55 71
e 55 76
e 55 78
e 55 84
e 55 93
e 55 102
e 55 103
e 55 104
e 55 106
e 55 108
e 55 109
e 55 112
e 56 57
e 56 64
e 56 65
e 56 66
e 56 72
e 56 73
e 56 74
e 56 82
e 56 83
e 56 87
e 56 90
e 56 97
e 56 100
e 56 103
e 56 104
e 56 108
e 57 63
e 57 66
e 57 67
e 57 70
e 57 74
e 57 79
e 57 86
e 57 90
e 57 92
e 57 95
e 57 100
e 57 101
e 57 111
e 57 115
e 58 60
e 58 63
e 58 64
e 58 80
e 58 81
e 58 93
e 58 95
e 58 98
e 58 100
e 58 109
e 58 110
e 58 112
e 58 114
e 59 60
e 59 64
e 59 68
e 59 74
e 59 77
e 59 78
e 59 85
e 59 86
e 59 95
e 59 100
e 59 101
e 59 107
e 59 112
e 59 113
e 60 64
e 60 67
e 60 68
e 60 70
e 60 72
e 60 73
e 60 75
e 60 80
e 60 93
e 60 99
e 60 101
e 60 107
e 60 110
e 60 111
e 60 112
e 60 114
e 60 115
e 61 65
e 61 67
e 61 69
e 61 74
e 61 77
e 61 84
e 61 96
e 61 109
e 61 115
e 62 64
e 62 67
e 62 71
e 62 81
e 62 87
e 62 89
e 62 90
e 62 91
e 62 95
e 62 100
e 62 103
e 62 104
e 62 108
e 62 112
e 62 114
e 62 115
e 63 65
e 63 73
e 63 77
e 63 79
e 63 80
e 63 82
e 63 84
e 63 85
e 63 88
e 63 90
e 63 96
e 63 106
e 63 109
e 63 113
e 64 66
e 64 79
e 64 80
e 64 81
e 64 82
e 64 91
e 64 92
e 64 93
e 64 94
e 64 96
e 64 100
e 64 101
e 64 102
e 64 104
e 64 107
e 64 108
e 64 112
e 65 68
e 65 72
e 65 73
e 65 74
e 65 79
e 65 80
e 65 81
e 65 82
e 65 83
e 65 86
e 65 88
e 65 92
e 65 94
e 65 95
e 65 96
e 65 102
e 65 104
e 65 107
e 65 108
e 65 109
e 66 69
e 66 79
e 66 84
e 66 86
e 66 89
e 66 90
e 66 104
e 66 108
e 66 111
e 67 74
e 67 78
e 67 79
e 67 85
e 67 88
e 67 98
e 67 101
e 67 106
e 67 111
e 67 112
e 68 78
e 68 79
e 68 82
e 68 89
e 68 92
e 68 94
e 68 100
e 68 108
e 68 110
e 68 111
e 68 113
e 68 114
e 69 70
e 69 75
e 69 79
e 69 85
e 69 87
e 69 98
e 69 101
e 69 102
e 69 103
e 69 110
e 69 112
e 70 71
e 70 75
e 70 76
e 70 78
e 70 86
e 70 87
e 70 88
e 70 90
e 70 91
e 70 101
e 70 102
e 70 103
e 70 104
e 70 105
e 71 72
e 71 74
e 71 76
e 71 79
e 71 81
e 71 84
e 71 85
e 71 87
e 71 90
e 71 93
e 71 94
e 71 100
e 71 103
e 71 106
e 71 109
e 71 111
e 71 113
e 72 74
e 72 76
e 72 86
e 72 87
e 72 90
e 72 94
e 72 101
e 72 105
e 72 107
e 72 109
e 73 74
e 73 85
e 73 87
e 73 91
e 73 97
e 73 102
e 73 108
e 73 111
e 73 113
e 73 115
e 74 75
e 74 78
e 74 79
e 74 81
e 74 83
e 74 90
e 74 93
e 74 94
e 74 95
e 74 96
e 74 100
e 74 105
e 74 107
e 74 109
e 74 114
e 75 77
e 75 80
e 75 84
e 75 85
e 75 86
e 75 87
e 75 94
e 75 95
e 75 101
e 75 106
e 75 107
e 76 79
e 76 81
e 76 82
e 76 84
e 76 96
e 76 101
e 76 102
e 76 103
e 76 104
e 76 108
e 76 109
e 76 110
e 76 114
e 77 79
e 77 83
e 77 85
e 77 87
e 77 95
e 77 104
e 77 105
e 77 110
e 77 111
e 78 79
e 78 82
e 78 86
e 78 90
e 78 91
e 78 92
e 78 93
e 78 95
e 78 98
e 78 100
e 78 101
e 78 102
e 78 103
e 78 106
e 78 108
e 79 84
e 79 86
e 79 90
e 79 91
e 79 93
e 79 94
e 79 101
e 79 106
e 79 111
e 79 112
e 79 115
e 80 83
e 80 86
e 80 97
e 80 102
e 80 103
e 80 104
e 80 106
e 80 107
e 80 109
e 80 113
e 81 86
e 81 88
e 81 89
e 81 90
e 81 91
e 81 95
e 81 101
e 81 105
e 81 107
e 81 109
e 81 113
e 81 115
e 82 86
e 82 87
e 82 90
e 82 91
e 82 92
e 82 96
e 82 103
e 82 106
e 82 107
e 82 108
e 83 87
e 83 89
e 83 94
e 83 99
e 83 101
e 83 103
e 83 104
e 83 107
e 83 108
e 83 112
e 84 88
e 84 97
e 84 100
e 84 102
e 84 103
e 84 106
e 84 110
e 84 111
e 84 113
e 85 91
e 85 94
e 85 96
e 85 99
e 85 100
e 85 102
e 85 105
e 85 109
e 85 110
e 85 113
e 86 88
e 86 89
e 86 90
e 86 91
e 86 96
e 86 98
e 86 100
e 86 109
e 86 114
e 86 115
e 87 94
e 87 97
e 87 101
e 87 104
e 87 112
e 87 114
e 87 115
e 88 91
e 88 95
e 88 97
e 88 103
e 88 104
e 88 106
e 88 112
e 88 114
e 88 115
e 89 91
e 89 92
e 89 96
e 89 98
e 89 100
e 89 102
e 89 103
e 90 92
e 90 96
e 90 97
e 90 101
e 90 104
e 90 105
e 90 109
e 90 110
e 90 112
e 90 115
e 91 101
e 91 106
e 91 107
e 91 108
e 91 110
e 91 114
e 91 115
e 92 93
e 92 94
e 92 98
e 92 101
e 92 106
e 92 109
e 92 111
e 92 114
e 93 100
e 93 101
e 93 103
e 94 97
e 94 100
e 94 101
e 94 103
e 94 104
e 94 112
e 94 115
e 95 97
e 95 98
e 95 108
e 95 111
e 96 98
e 96 100
e 96 102
e 96 109
e 96 114
e 96 115
e 97 102
e 97 104
e 97 108
e 98 101
e 98 110
e 98 111
e 98 112
e 98 114
e 99 105
e 99 115
e 100 102
e 100 104
e 100 105
e 100 110
e 100 113
e 101 105
e 101 107
e 102 105
e 102 106
e 102 107
e 102 112
e 102 113
e 102 115
e 103 104
e 103 109
e 103 110
e 103 112
e 104 105
e 104 107
e 107 109
e 107 110
e 107 111
e 107 112
e 108 110
e 108 111
e 108 114
e 110 111
e 110 113
e 111 113
e 111 114
e 111 115
e 112 113
